
  22    0


   0  12 2 3 4 5 6 8 9 17 18 19 20 21 
   5   5 16 15 12 11 7 
  10   3 14 11 7 
   3   2 12 11 
   6   2 11 10 
   6   2 11 10 
   2   1 10 
   4   1 13 
   8   1 10 
   9   1 22
   2   1 22
   8   1 22
   3   1 22
   2   1 22
   1   1 22
   2   1 22
   7   1 22
   1   1 22
   5   1 22
   7   1 22
   5   1 22
   0   0 
